; Query 0 -- Type: InitialValues, Instructions: 13412
; This file conforms to SMTLIBv2 and was generated by KLEE
(set-option :produce-models true)
(set-logic QF_AUFBV )
; Array declarations
(declare-fun ProfileBuffer () (Array (_ BitVec 32) (_ BitVec 8) ) )
; Constraints
; Constraints and QueryExpr
(assert
        (= 
           false
           (= 
              (_ bv0 64)
              (concat 
                      (select 
                              ProfileBuffer
                              (_ bv7 32)
                      )
                      (concat 
                              (select 
                                      ProfileBuffer
                                      (_ bv6 32)
                              )
                              (concat 
                                      (select 
                                              ProfileBuffer
                                              (_ bv5 32)
                                      )
                                      (concat 
                                              (select 
                                                      ProfileBuffer
                                                      (_ bv4 32)
                                              )
                                              (concat 
                                                      (select 
                                                              ProfileBuffer
                                                              (_ bv3 32)
                                                      )
                                                      (concat 
                                                              (select 
                                                                      ProfileBuffer
                                                                      (_ bv2 32)
                                                              )
                                                              (concat 
                                                                      (select 
                                                                              ProfileBuffer
                                                                              (_ bv1 32)
                                                                      )
                                                                      (select 
                                                                              ProfileBuffer
                                                                              (_ bv0 32)
                                                                      )
                                                              )
                                                      )
                                              )
                                      )
                              )
                      )
              )
           )
        )
)
(check-sat)
(get-value ( (select ProfileBuffer (_ bv0 32) ) ) )
(get-value ( (select ProfileBuffer (_ bv1 32) ) ) )
(get-value ( (select ProfileBuffer (_ bv2 32) ) ) )
(get-value ( (select ProfileBuffer (_ bv3 32) ) ) )
(get-value ( (select ProfileBuffer (_ bv4 32) ) ) )
(get-value ( (select ProfileBuffer (_ bv5 32) ) ) )
(get-value ( (select ProfileBuffer (_ bv6 32) ) ) )
(get-value ( (select ProfileBuffer (_ bv7 32) ) ) )
(exit)
;   OK -- Elapsed: 4.997988e-03s
;   Solvable: true
;     ProfileBuffer = [255,0,0,0,0,0,0,0]

; Query 1 -- Type: InitialValues, Instructions: 13418
; This file conforms to SMTLIBv2 and was generated by KLEE
(set-option :produce-models true)
(set-logic QF_AUFBV )
; Array declarations
(declare-fun ProfileSize () (Array (_ BitVec 32) (_ BitVec 8) ) )
; Constraints
; Constraints and QueryExpr
(assert
        (= 
           false
           (= 
              (_ bv0 64)
              (concat 
                      (select 
                              ProfileSize
                              (_ bv7 32)
                      )
                      (concat 
                              (select 
                                      ProfileSize
                                      (_ bv6 32)
                              )
                              (concat 
                                      (select 
                                              ProfileSize
                                              (_ bv5 32)
                                      )
                                      (concat 
                                              (select 
                                                      ProfileSize
                                                      (_ bv4 32)
                                              )
                                              (concat 
                                                      (select 
                                                              ProfileSize
                                                              (_ bv3 32)
                                                      )
                                                      (concat 
                                                              (select 
                                                                      ProfileSize
                                                                      (_ bv2 32)
                                                              )
                                                              (concat 
                                                                      (select 
                                                                              ProfileSize
                                                                              (_ bv1 32)
                                                                      )
                                                                      (select 
                                                                              ProfileSize
                                                                              (_ bv0 32)
                                                                      )
                                                              )
                                                      )
                                              )
                                      )
                              )
                      )
              )
           )
        )
)
(check-sat)
(get-value ( (select ProfileSize (_ bv0 32) ) ) )
(get-value ( (select ProfileSize (_ bv1 32) ) ) )
(get-value ( (select ProfileSize (_ bv2 32) ) ) )
(get-value ( (select ProfileSize (_ bv3 32) ) ) )
(get-value ( (select ProfileSize (_ bv4 32) ) ) )
(get-value ( (select ProfileSize (_ bv5 32) ) ) )
(get-value ( (select ProfileSize (_ bv6 32) ) ) )
(get-value ( (select ProfileSize (_ bv7 32) ) ) )
(exit)
;   OK -- Elapsed: 4.341114e-03s
;   Solvable: true
;     ProfileSize = [0,255,0,0,0,0,0,0]

; Query 2 -- Type: InitialValues, Instructions: 13762
; This file conforms to SMTLIBv2 and was generated by KLEE
(set-logic QF_AUFBV )
; Array declarations
; Constraints
; Constraints and QueryExpr
(assert
        true
)
(check-sat)
(exit)
;   OK -- Elapsed: 4.353999e-03s
;   Solvable: true

; Query 3 -- Type: InitialValues, Instructions: 13762
; This file conforms to SMTLIBv2 and was generated by KLEE
(set-option :produce-models true)
(set-logic QF_AUFBV )
; Array declarations
(declare-fun *CommBufferSize () (Array (_ BitVec 32) (_ BitVec 8) ) )
; Constraints
; Constraints and QueryExpr
(assert
        (= 
           false
           (bvult 
                  (concat 
                          (select 
                                  *CommBufferSize
                                  (_ bv7 32)
                          )
                          (concat 
                                  (select 
                                          *CommBufferSize
                                          (_ bv6 32)
                                  )
                                  (concat 
                                          (select 
                                                  *CommBufferSize
                                                  (_ bv5 32)
                                          )
                                          (concat 
                                                  (select 
                                                          *CommBufferSize
                                                          (_ bv4 32)
                                                  )
                                                  (concat 
                                                          (select 
                                                                  *CommBufferSize
                                                                  (_ bv3 32)
                                                          )
                                                          (concat 
                                                                  (select 
                                                                          *CommBufferSize
                                                                          (_ bv2 32)
                                                                  )
                                                                  (concat 
                                                                          (select 
                                                                                  *CommBufferSize
                                                                                  (_ bv1 32)
                                                                          )
                                                                          (select 
                                                                                  *CommBufferSize
                                                                                  (_ bv0 32)
                                                                          )
                                                                  )
                                                          )
                                                  )
                                          )
                                  )
                          )
                  )
                  (_ bv16 64)
           )
        )
)
(check-sat)
(get-value ( (select *CommBufferSize (_ bv0 32) ) ) )
(get-value ( (select *CommBufferSize (_ bv1 32) ) ) )
(get-value ( (select *CommBufferSize (_ bv2 32) ) ) )
(get-value ( (select *CommBufferSize (_ bv3 32) ) ) )
(get-value ( (select *CommBufferSize (_ bv4 32) ) ) )
(get-value ( (select *CommBufferSize (_ bv5 32) ) ) )
(get-value ( (select *CommBufferSize (_ bv6 32) ) ) )
(get-value ( (select *CommBufferSize (_ bv7 32) ) ) )
(exit)
;   OK -- Elapsed: 4.422265e-03s
;   Solvable: true
;     *CommBufferSize = [16,0,0,0,0,0,0,0]

; Query 4 -- Type: InitialValues, Instructions: 13773
; This file conforms to SMTLIBv2 and was generated by KLEE
(set-option :produce-models true)
(set-logic QF_AUFBV )
; Array declarations
(declare-fun mSmramReadyToLock () (Array (_ BitVec 32) (_ BitVec 8) ) )
; Constraints
; Constraints and QueryExpr
(assert
        (= 
           false
           (= 
              (_ bv0 8)
              (select 
                      mSmramReadyToLock
                      (_ bv0 32)
              )
           )
        )
)
(check-sat)
(get-value ( (select mSmramReadyToLock (_ bv0 32) ) ) )
(exit)
;   OK -- Elapsed: 4.151686e-03s
;   Solvable: true
;     mSmramReadyToLock = [255]

; Query 5 -- Type: InitialValues, Instructions: 13799
; This file conforms to SMTLIBv2 and was generated by KLEE
(set-option :produce-models true)
(set-logic QF_AUFBV )
; Array declarations
(declare-fun *CommBufferSize () (Array (_ BitVec 32) (_ BitVec 8) ) )
; Constraints
; Constraints and QueryExpr
(assert
        (let
            (
             (?B1
                 (concat 
                         (select 
                                 *CommBufferSize
                                 (_ bv7 32)
                         )
                         (concat 
                                 (select 
                                         *CommBufferSize
                                         (_ bv6 32)
                                 )
                                 (concat 
                                         (select 
                                                 *CommBufferSize
                                                 (_ bv5 32)
                                         )
                                         (concat 
                                                 (select 
                                                         *CommBufferSize
                                                         (_ bv4 32)
                                                 )
                                                 (concat 
                                                         (select 
                                                                 *CommBufferSize
                                                                 (_ bv3 32)
                                                         )
                                                         (concat 
                                                                 (select 
                                                                         *CommBufferSize
                                                                         (_ bv2 32)
                                                                 )
                                                                 (concat 
                                                                         (select 
                                                                                 *CommBufferSize
                                                                                 (_ bv1 32)
                                                                         )
                                                                         (select 
                                                                                 *CommBufferSize
                                                                                 (_ bv0 32)
                                                                         )
                                                                 )
                                                         )
                                                 )
                                         )
                                 )
                         )
                 )
             )
            )
            (and 
                 (= 
                    false
                    (bvult 
                           ?B1
                           (_ bv521142272 64)
                    )
                 )
                 (= 
                    false
                    (bvult 
                           ?B1
                           (_ bv16 64)
                    )
                 )
            )
        )
)
(check-sat)
(get-value ( (select *CommBufferSize (_ bv0 32) ) ) )
(get-value ( (select *CommBufferSize (_ bv1 32) ) ) )
(get-value ( (select *CommBufferSize (_ bv2 32) ) ) )
(get-value ( (select *CommBufferSize (_ bv3 32) ) ) )
(get-value ( (select *CommBufferSize (_ bv4 32) ) ) )
(get-value ( (select *CommBufferSize (_ bv5 32) ) ) )
(get-value ( (select *CommBufferSize (_ bv6 32) ) ) )
(get-value ( (select *CommBufferSize (_ bv7 32) ) ) )
(exit)
;   OK -- Elapsed: 7.197612e-03s
;   Solvable: true
;     *CommBufferSize = [0,0,0,0,0,128,0,0]

; Query 6 -- Type: InitialValues, Instructions: 13841
; This file conforms to SMTLIBv2 and was generated by KLEE
(set-option :produce-models true)
(set-logic QF_AUFBV )
; Array declarations
(declare-fun *CommBufferSize () (Array (_ BitVec 32) (_ BitVec 8) ) )
; Constraints
; Constraints and QueryExpr
(assert
        (let
            (
             (?B1
                 (concat 
                         (select 
                                 *CommBufferSize
                                 (_ bv7 32)
                         )
                         (concat 
                                 (select 
                                         *CommBufferSize
                                         (_ bv6 32)
                                 )
                                 (concat 
                                         (select 
                                                 *CommBufferSize
                                                 (_ bv5 32)
                                         )
                                         (concat 
                                                 (select 
                                                         *CommBufferSize
                                                         (_ bv4 32)
                                                 )
                                                 (concat 
                                                         (select 
                                                                 *CommBufferSize
                                                                 (_ bv3 32)
                                                         )
                                                         (concat 
                                                                 (select 
                                                                         *CommBufferSize
                                                                         (_ bv2 32)
                                                                 )
                                                                 (concat 
                                                                         (select 
                                                                                 *CommBufferSize
                                                                                 (_ bv1 32)
                                                                         )
                                                                         (select 
                                                                                 *CommBufferSize
                                                                                 (_ bv0 32)
                                                                         )
                                                                 )
                                                         )
                                                 )
                                         )
                                 )
                         )
                 )
             )
            )
            (and 
                 (= 
                    false
                    (bvult 
                           (_ bv0 64)
                           ?B1
                    )
                 )
                 (= 
                    false
                    (bvult 
                           ?B1
                           (_ bv16 64)
                    )
                 )
            )
        )
)
(check-sat)
(get-value ( (select *CommBufferSize (_ bv0 32) ) ) )
(get-value ( (select *CommBufferSize (_ bv1 32) ) ) )
(get-value ( (select *CommBufferSize (_ bv2 32) ) ) )
(get-value ( (select *CommBufferSize (_ bv3 32) ) ) )
(get-value ( (select *CommBufferSize (_ bv4 32) ) ) )
(get-value ( (select *CommBufferSize (_ bv5 32) ) ) )
(get-value ( (select *CommBufferSize (_ bv6 32) ) ) )
(get-value ( (select *CommBufferSize (_ bv7 32) ) ) )
(exit)
;   OK -- Elapsed: 4.017064e-03s
;   Solvable: false

